Problem:    
Rows:       248
Columns:    89 (72 integer, 72 binary)
Non-zeros:  820
Status:     INTEGER OPTIMAL
Objective:  value = 91.551025 (MINimum)

   No.   Row name        Activity     Lower bound   Upper bound
------ ------------    ------------- ------------- -------------
     1 r.5                   2091.55             0               
     2 r.6                  -1988.32      -1991.29               
     3 r.7                    91.551             0               
     4 r.8                 -0.926337      -1987.55               
     5 r.9                    91.551             0               
     6 r.10                 -1873.82      -1990.76               
     7 r.11                  2091.55             0               
     8 r.12                 -1963.92      -1987.53               
     9 r.13                  2091.55             0               
    10 r.14                 -1960.52      -1983.63               
    11 r.15                   91.551             0               
    12 r.16                  13.7148      -1982.36               
    13 r.17                  2091.55             0               
    14 r.18                 -1978.38      -1991.56               
    15 r.19                   91.551             0               
    16 r.20                  13.7148      -1987.56               
    17 r.21                   91.551             0               
    18 r.22                  2.96673      -1991.74               
    19 r.23                  2091.55             0               
    20 r.24                 -1976.39      -1990.11               
    21 r.25                   91.551             0               
    22 r.26                 -1884.56      -1976.11               
    23 r.27                  2091.55             0               
    24 r.28                 -1908.45      -1988.11               
    25 r.29                  2091.55             0               
    26 r.30                 -1908.45      -1975.95               
    27 r.31                   91.551             0               
    28 r.32                 -16.3786      -1988.38               
    29 r.33                  2091.55             0               
    30 r.34                 -1999.53      -1999.53               
    31 r.35                   91.551             0               
    32 r.36                   0.4657      -1997.93               
    33 r.37                        1             1             = 
    34 r.38                        1             1             = 
    35 r.39                        1             1             = 
    36 r.40                        1             1             = 
    37 r.41                        1             1             = 
    38 r.42                        1             1             = 
    39 r.43                        1             1             = 
    40 r.44                        1             1             = 
    41 r.45                  113.007        9.2413               
    42 r.46                 -111.507      -1991.29               
    43 r.47                  40.0066       12.4719               
    44 r.48                 -43.0066      -1987.55               
    45 r.49                  26.3068       16.3659               
    46 r.50                 -26.3068      -1991.29               
    47 r.51                  17.6411       17.6411               
    48 r.52                 -17.6411      -1987.55               
    49 r.53                   8.4409        8.4409               
    50 r.54                  -8.4409      -1991.29               
    51 r.55                  17.6411       12.4426               
    52 r.56                 -17.6411      -1987.55               
    53 r.57                  1989.79       8.25702               
    54 r.58                 -1989.79      -1991.29               
    55 r.59                  27.5347        9.8936               
    56 r.60                 -27.5347      -1987.55               
    57 r.61                 -1897.73      -1948.09               
    58 r.62                 -1921.62      -1932.06               
    59 r.63                 -1880.63      -1948.09               
    60 r.64                 -1904.52      -1932.06               
    61 r.65                  78.3758        24.045               
    62 r.66                 -78.3758      -1991.29               
    63 r.67                  1987.55       11.6223               
    64 r.68                 -1987.55      -1987.55               
    65 r.69                 -1987.29      -1989.79               
    66 r.70                 -4.39204      -1984.55               
    67 r.71                 -1987.29      -1989.79               
    68 r.72                 -4.39204      -1984.55               
    69 r.73                  1886.99       8.70854               
    70 r.74                 -1888.49      -1990.76               
    71 r.75                  1959.99       12.4523               
    72 r.76                 -1956.99      -1987.53               
    73 r.77                   1914.8       16.3659               
    74 r.78                  -1914.8      -1990.76               
    75 r.79                  1974.63       17.6411               
    76 r.80                 -1974.63      -1987.53               
    77 r.81                  1896.93        8.4409               
    78 r.82                 -1896.93      -1990.76               
    79 r.83                  1974.63       12.4426               
    80 r.84                 -1974.63      -1987.53               
    81 r.85                  1878.28       8.25702               
    82 r.86                 -1878.28      -1990.76               
    83 r.87                  1984.53        9.8936               
    84 r.88                 -1984.53      -1987.53               
    85 r.89                  1990.76       23.8899               
    86 r.90                 -1990.76      -1990.76               
    87 r.91                  52.4708       11.8948               
    88 r.92                 -52.4708      -1987.53               
    89 r.93                 -33.1312      -1947.93               
    90 r.94                  1858.94      -1932.33               
    91 r.95                 -1947.53      -1947.93               
    92 r.96                 -55.4589      -1932.33               
    93 r.97                 -1875.78      -1989.26               
    94 r.98                 -1961.39      -1984.53               
    95 r.99                 -1875.78      -1989.26               
    96 r.100                -1961.39      -1984.53               
    97 r.101                 1972.19       8.70854               
    98 r.102                -1973.69      -1983.63               
    99 r.103                 1985.36       12.4523               
   100 r.104                -1982.36      -1982.36               
   101 r.105                 86.7001        9.2413               
   102 r.106                -85.2001      -1983.63               
   103 r.107                 22.3655       12.4719               
   104 r.108                -25.3655      -1982.36               
   105 r.109                -1982.13      -1982.13               
   106 r.110                -7.90141      -1979.36               
   107 r.111                -1974.23      -1982.13               
   108 r.112                       0      -1979.36               
   109 r.113                 1963.48       8.25702               
   110 r.114                -1963.48      -1983.63               
   111 r.115                  9.8936        9.8936               
   112 r.116                 -9.8936      -1982.36               
   113 r.117                 75.9588       23.8899               
   114 r.118                -75.9588      -1983.63               
   115 r.119                 77.8363       11.8948               
   116 r.120                -77.8363      -1982.36               
   117 r.121                -1947.93      -1947.93               
   118 r.122                -55.8607      -1932.33               
   119 r.123                -1922.16      -1947.93               
   120 r.124                -30.0934      -1932.33               
   121 r.125                -1960.98      -1982.13               
   122 r.126                 13.2491      -1979.36               
   123 r.127                -1960.98      -1982.13               
   124 r.128                 13.2491      -1979.36               
   125 r.129                 1990.06       8.70854               
   126 r.130                -1991.56      -1991.56               
   127 r.131                 1985.36       12.4523               
   128 r.132                -1982.36      -1987.56               
   129 r.133                 104.566        9.2413               
   130 r.134                -103.066      -1991.56               
   131 r.135                 22.3655       12.4719               
   132 r.136                -25.3655      -1987.56               
   133 r.137                -1982.13      -1982.13               
   134 r.138                -7.90141      -1979.36               
   135 r.139                -1974.23      -1982.13               
   136 r.140                       0      -1979.36               
   137 r.141                 1981.35       8.25702               
   138 r.142                -1981.35      -1991.56               
   139 r.143                  9.8936        9.8936               
   140 r.144                 -9.8936      -1987.56               
   141 r.145                 93.8248       23.8899               
   142 r.146                -93.8248      -1991.56               
   143 r.147                 77.8363       11.8948               
   144 r.148                -77.8363      -1987.56               
   145 r.149                -1930.07      -1947.93               
   146 r.150                -37.9948      -1932.33               
   147 r.151                -1922.16      -1947.93               
   148 r.152                -30.0934      -1932.33               
   149 r.153                -1978.85      -1978.85               
   150 r.154                 13.2491      -1962.14               
   151 r.155                -1978.85      -1978.85               
   152 r.156                 13.2491      -1962.14               
   153 r.157                 8.70854       8.70854               
   154 r.158                -10.2085      -1991.74               
   155 r.159                 1975.47       12.4523               
   156 r.160                -1972.47      -1990.11               
   157 r.161                 123.215        9.2413               
   158 r.162                -121.715      -1991.74               
   159 r.163                 12.4719       12.4719               
   160 r.164                -15.4719      -1990.11               
   161 r.165                 36.5154       16.3659               
   162 r.166                -36.5154      -1991.74               
   163 r.167                 1990.11       17.6411               
   164 r.168                -1990.11      -1990.11               
   165 r.169                 18.6494        8.4409               
   166 r.170                -18.6494      -1991.74               
   167 r.171                 1990.11       12.4426               
   168 r.172                -1990.11      -1990.11               
   169 r.173                -1887.53      -1948.09               
   170 r.174                -1911.42      -1932.06               
   171 r.175                -1908.17      -1948.09               
   172 r.176                -1932.06      -1932.06               
   173 r.177                -1911.42      -1947.93               
   174 r.178                -19.3454      -1932.33               
   175 r.179                -1932.06      -1947.93               
   176 r.180                 -39.987      -1932.33               
   177 r.181                 2.50103      -1988.74               
   178 r.182                -1976.86      -1984.11               
   179 r.183                 2.50103      -1988.74               
   180 r.184                -1976.86      -1984.11               
   181 r.185                -1897.73      -1948.09               
   182 r.186                -1921.62      -1932.06               
   183 r.187                -1880.63      -1948.09               
   184 r.188                -1904.52      -1932.06               
   185 r.189                 10.7413        9.2413               
   186 r.190                 -9.2413      -1976.11               
   187 r.191                 1944.53       12.4719               
   188 r.192                -1947.53      -1988.11               
   189 r.193                 1924.04       16.3659               
   190 r.194                -1924.04      -1976.11               
   191 r.195                 1922.16       17.6411               
   192 r.196                -1922.16      -1988.11               
   193 r.197                 1906.18        8.4409               
   194 r.198                -1906.18      -1976.11               
   195 r.199                 1922.16       12.4426               
   196 r.200                -1922.16      -1988.11               
   197 r.201                -1887.53      -1948.09               
   198 r.202                -1911.42      -1932.06               
   199 r.203                -1908.17      -1948.09               
   200 r.204                -1932.06      -1932.06               
   201 r.205                 1976.11        24.045               
   202 r.206                -1976.11      -1976.11               
   203 r.207                 1892.07       11.6223               
   204 r.208                -1892.07      -1988.11               
   205 r.209                 1920.12       8.70854               
   206 r.210                -1921.62      -1975.95               
   207 r.211                 15.4523       12.4523               
   208 r.212                -12.4523      -1988.38               
   209 r.213                -33.1312      -1947.93               
   210 r.214                 1858.94      -1932.33               
   211 r.215                -1947.53      -1947.93               
   212 r.216                -55.4589      -1932.33               
   213 r.217                -1947.93      -1947.93               
   214 r.218                -55.8607      -1932.33               
   215 r.219                -1922.16      -1947.93               
   216 r.220                -30.0934      -1932.33               
   217 r.221                -1930.07      -1947.93               
   218 r.222                -37.9948      -1932.33               
   219 r.223                -1922.16      -1947.93               
   220 r.224                -30.0934      -1932.33               
   221 r.225                -1911.42      -1947.93               
   222 r.226                -19.3454      -1932.33               
   223 r.227                -1932.06      -1947.93               
   224 r.228                 -39.987      -1932.33               
   225 r.229                 23.8899       23.8899               
   226 r.230                -23.8899      -1975.95               
   227 r.231                  107.93       11.8948               
   228 r.232                 -107.93      -1988.38               
   229 r.233                -1987.29      -1989.79               
   230 r.234                -4.39204      -1984.55               
   231 r.235                -1987.29      -1989.79               
   232 r.236                -4.39204      -1984.55               
   233 r.237                -1875.78      -1989.26               
   234 r.238                -1961.39      -1984.53               
   235 r.239                -1875.78      -1989.26               
   236 r.240                -1961.39      -1984.53               
   237 r.241                -1960.98      -1982.13               
   238 r.242                 13.2491      -1979.36               
   239 r.243                -1960.98      -1982.13               
   240 r.244                 13.2491      -1979.36               
   241 r.245                -1978.85      -1978.85               
   242 r.246                 13.2491      -1962.14               
   243 r.247                -1978.85      -1978.85               
   244 r.248                 13.2491      -1962.14               
   245 r.249                 2.50103      -1988.74               
   246 r.250                -1976.86      -1984.11               
   247 r.251                 2.50103      -1988.74               
   248 r.252                -1976.86      -1984.11               

   No. Column name       Activity     Lower bound   Upper bound
------ ------------    ------------- ------------- -------------
     1 tt                     91.551             0               
     2 s_1_1        *              1             0             1 
     3 t_1_1                 78.3758             0               
     4 s_1_6        *              0             0             1 
     5 s_2_1        *              0             0             1 
     6 t_2_1                 95.4774             0               
     7 s_2_6        *              1             0             1 
     8 s_1_2        *              0             0             1 
     9 t_1_2                 1966.87             0               
    10 s_1_7        *              1             0             1 
    11 s_2_2        *              1             0             1 
    12 t_2_2                 52.4708             0               
    13 s_2_7        *              0             0             1 
    14 s_1_3        *              1             0             1 
    15 t_1_3                 52.0689             0               
    16 s_2_3        *              0             0             1 
    17 t_2_3                 77.8363             0               
    18 s_1_4        *              1             0             1 
    19 t_1_4                 69.9349             0               
    20 s_2_4        *              0             0             1 
    21 t_2_4                 77.8363             0               
    22 s_1_5        *              0             0             1 
    23 t_1_5                 88.5843             0               
    24 s_2_5        *              1             0             1 
    25 t_2_5                 67.9427             0               
    26 t_1_6                 1976.11             0               
    27 t_2_6                       0             0               
    28 t_1_7                       0             0               
    29 t_2_7                  107.93             0               
    30 s_1_8        *              1             0             1 
    31 t_1_8                 91.0853             0               
    32 s_2_8        *              0             0             1 
    33 t_2_8                 91.0853             0               
    34 u_1_1_2      *              1             0             1 
    35 u_2_1_2      *              0             0             1 
    36 u_1_1_3      *              0             0             1 
    37 u_2_1_3      *              0             0             1 
    38 u_1_1_4      *              0             0             1 
    39 u_2_1_4      *              0             0             1 
    40 u_1_1_5      *              1             0             1 
    41 u_2_1_5      *              0             0             1 
    42 u_1_1_7      *              0             0             1 
    43 u_2_1_7      *              1             0             1 
    44 u_1_2_1      *              0             0             1 
    45 u_2_2_1      *              1             0             1 
    46 u_1_2_3      *              0             0             1 
    47 u_2_2_3      *              1             0             1 
    48 u_1_2_4      *              0             0             1 
    49 u_2_2_4      *              1             0             1 
    50 u_1_2_5      *              0             0             1 
    51 u_2_2_5      *              1             0             1 
    52 u_1_2_6      *              1             0             1 
    53 u_2_2_6      *              0             0             1 
    54 u_1_3_1      *              1             0             1 
    55 u_2_3_1      *              1             0             1 
    56 u_1_3_2      *              1             0             1 
    57 u_2_3_2      *              0             0             1 
    58 u_1_3_5      *              1             0             1 
    59 u_2_3_5      *              0             0             1 
    60 u_1_3_6      *              1             0             1 
    61 u_2_3_6      *              0             0             1 
    62 u_1_4_1      *              1             0             1 
    63 u_2_4_1      *              1             0             1 
    64 u_1_4_2      *              1             0             1 
    65 u_2_4_2      *              0             0             1 
    66 u_1_4_5      *              1             0             1 
    67 u_2_4_5      *              0             0             1 
    68 u_1_4_6      *              1             0             1 
    69 u_2_4_6      *              0             0             1 
    70 u_1_5_1      *              0             0             1 
    71 u_2_5_1      *              1             0             1 
    72 u_1_5_2      *              1             0             1 
    73 u_2_5_2      *              0             0             1 
    74 u_1_5_3      *              0             0             1 
    75 u_2_5_3      *              1             0             1 
    76 u_1_5_4      *              0             0             1 
    77 u_2_5_4      *              1             0             1 
    78 u_1_6_2      *              0             0             1 
    79 u_2_6_2      *              1             0             1 
    80 u_1_6_3      *              0             0             1 
    81 u_2_6_3      *              1             0             1 
    82 u_1_6_4      *              0             0             1 
    83 u_2_6_4      *              1             0             1 
    84 u_1_6_7      *              0             0             1 
    85 u_2_6_7      *              1             0             1 
    86 u_1_7_1      *              1             0             1 
    87 u_2_7_1      *              0             0             1 
    88 u_1_7_6      *              1             0             1 
    89 u_2_7_6      *              0             0             1 

Integer feasibility conditions:

KKT.PE: max.abs.err = 1.42e-14 on row 49
        max.rel.err = 7.76e-17 on row 49
        High quality

KKT.PB: max.abs.err = 2.91e-13 on row 47
        max.rel.err = 1.56e-14 on row 47
        High quality

End of output
